(set-logic QF_S)
(declare-fun var0 () String)
(declare-fun var1 () Int)
(declare-fun var2 () Int)
(declare-fun var3 () String)
(declare-fun var4 () String)
(declare-fun var5 () String)
(declare-fun var6 () Int)
(declare-fun var7 () Int)
(assert (<= (str.to.int (str.substr var0 var1 var2)) (str.to.int var3)))
(assert (> (str.indexof var4 var5 var6) (str.indexof var5 "O'3Ol" var7)))
(assert (str.contains "j*#" var0))
(assert (> var1 var6))
(check-sat)